\ LP format - for model browsing. Use MPS format to capture full model detail.
Maximize
  4 x_1 + 7 x_2 + x_3 + 5 x_4 + 3 x_5
Subject To
 C_1: 4 x_3 + 8 x_4 <= 6
 C_2: 3 x_2 + 8 x_5 <= 5
 C_3: 10 x_1 + 2 x_2 <= 6
 C_4: 8 x_3 <= 4
 C_5: 10 x_2 + 2 x_5 <= 6
 C_6: 5 x_1 + 5 x_2 + 7 x_4 <= 8
 C_7: 2 x_1 + 3 x_2 + 5 x_3 <= 5
 C_8: 6 x_1 + 5 x_5 <= 5
 C_9: 9 x_3 + x_4 <= 5
 C_10: 4 x_2 + 8 x_4 <= 6
Bounds
Binaries
 x_1 x_2 x_3 x_4 x_5
End
